20
20
429
413
341
321
318
302
261
239
221
213
179
146
134
116
110
73
61
23
17
6
1	860
54	407
231	855
205	732
268	693
261	635
430	914
918	518
753	246
784	150
2	632
90	905
265	895
55	162
329	770
826	584
102	67
762	362
558	225
974	23
